* #variable= 58 #constraint= 3 
+1 x1 -1 x30 +2 x2 -2 x31 +4 x3 -4 x32 +8 x4 -8 x33 +16 x5 -16 x34 +32 x6 -32 x35 +64 x7 -64 x36 +128 x8 -128 x37 +256 x9 -256 x38 +512 x10 -512 x39 +1024 x11 -1024 x40 +2048 x12 -2048 x41 +4096 x13 -4096 x42 +8192 x14 -8192 x43 +16384 x15 -16384 x44 +32768 x16 -32768 x45 +65536 x17 -65536 x46 +131072 x18 -131072 x47 +262144 x19 -262144 x48 +524288 x20 -524288 x49 +1048576 x21 -1048576 x50 +2097152 x22 -2097152 x51 +4194304 x23 -4194304 x52 +8388608 x24 -8388608 x53 +16777216 x25 -16777216 x54 +33554432 x26 -33554432 x55 +67108864 x27 -67108864 x56 +134217728 x28 -134217728 x57 +268435456 x29 -268435456 x58 = 0 ;
-1 x1 -1 x30 >= -1; 
+1 x1 +1 x30 >= 1; 
